&BANDS
prefix = 'ab_f',
outdir = '.',
filband = 'bands.dat',
/

