&CONTROL
  calculation = 'vc-relax'
  etot_conv_thr =   1.0d-05
  forc_conv_thr =   1.0d-04
  outdir = '.'
  pseudo_dir = '.'
  disk_io = 'none'
  tprnfor = .true.
  tstress = .true.
  verbosity = 'high'
  nstep=1000
/
&SYSTEM
  degauss =   0.05
  ecutwfc = 45
  ibrav = 0
  nat = 6
  nosym = .false.
  ntyp = 2
  occupations = 'smearing'
  smearing = 'cold'
/
&ELECTRONS
  conv_thr =   1.0d-8
  electron_maxstep = 100
  mixing_beta =   0.4
  diagonalization = 'cg'
/
&IONS
  ion_dynamics = 'bfgs'
  pot_extrapolation = "first_order"
/
&CELL
  cell_dynamics = 'bfgs'
  cell_dofree = '2Dxy'
  press = 0
/
ATOMIC_SPECIES
C      12.0107 C.pbesol-n-kjpaw_psl.1.0.0.UPF
F      18.9984032 F.pbesol-n-kjpaw_psl.1.0.0.UPF

ATOMIC_POSITIONS crystal
C            0.0000192372       0.0000205709       0.5034283996
C            0.3333423734       0.3333433869       0.5286075473
C            0.6666304467       0.6666281225       0.6315737963
C            0.3333076240       0.3333055973       0.6063941121
F            0.0000446463       0.0000447066       0.4344390035
F            0.6666023731       0.6666014193       0.7005636096

K_POINTS automatic
12 12 1 0 0 0

CELL_PARAMETERS angstrom
      2.5668995380       0.0000000000       0.0000000000
      1.2834500650       2.2230000380       0.0000000000
      0.0016438986       0.0009644628      19.9764861151