&CONTROL
  calculation = 'scf'
  etot_conv_thr =   1.0d-05
  forc_conv_thr =   1.0d-04
  outdir = '.'
  pseudo_dir = '.'
  tprnfor = .true.
  tstress = .true.
  verbosity = 'high'
/
&SYSTEM
  degauss =   2.0000000000d-02
  ecutrho =   3.6000000000d+02
  ecutwfc = 45
  ibrav = 0
  nat = 6
  nosym = .false.
  ntyp = 2
  occupations = 'smearing'
  smearing = 'cold'
/
&ELECTRONS
/
&IONS
ion_dynamics = 'bfgs'
/
&CELL
cell_dofree = 'all'
cell_dynamics = 'bfgs'
press = 0.0
press_conv_thr = 0.5
/
ATOMIC_SPECIES
C      12.0107 C.pbesol-n-kjpaw_psl.1.0.0.UPF
F      18.9984032 F.pbesol-n-kjpaw_psl.1.0.0.UPF

ATOMIC_POSITIONS crystal
C            0.0000192372       0.0000205709       0.5034283996
C            0.3333423734       0.3333433869       0.5286075473
C            0.6666304467       0.6666281225       0.6315737963
C            0.3333076240       0.3333055973       0.6063941121
F            0.0000446463       0.0000447066       0.4344390035
F            0.6666023731       0.6666014193       0.7005636096

K_POINTS automatic
12 12 1 0 0 0

CELL_PARAMETERS angstrom
   2.556011282  -0.000000525   0.000000000
   1.273005480   2.204910623   0.000000000
   0.001630521   0.000956614  19.976486115